c Path planning problem for ProbSAT
c Generated by gen_cnf.py
p cnf 588 985
1 2 3 4 5 6 7 8 9 10 11 12 13 14 15 16 17 18 19 0
20 21 22 23 24 25 26 27 28 29 30 31 32 33 34 35 36 37 38 0
39 40 41 42 43 44 45 46 47 48 49 50 51 52 53 54 55 56 57 0
58 59 60 61 62 63 64 65 66 67 68 69 70 71 72 73 74 75 76 0
77 78 79 80 81 82 83 84 85 86 87 88 89 90 91 92 93 94 95 0
96 97 98 99 100 101 102 103 104 105 106 107 108 109 110 111 112 113 114 0
115 116 117 118 119 120 121 122 123 124 125 126 127 128 129 130 131 132 133 0
134 135 136 137 138 139 140 141 142 143 144 145 146 147 148 149 150 151 152 0
153 154 155 156 157 158 159 160 161 162 163 164 165 166 167 168 169 170 171 0
172 173 174 175 176 177 178 179 180 181 182 183 184 185 186 187 188 189 190 0
191 192 193 194 195 196 197 198 199 200 201 202 203 204 205 206 207 208 209 0
210 211 212 213 214 215 216 217 218 219 220 221 222 223 224 225 226 227 228 0
229 230 231 232 233 234 235 236 237 238 239 240 241 242 243 244 245 246 247 0
248 249 250 251 252 253 254 255 256 257 258 259 260 261 262 263 264 265 266 0
267 268 269 270 271 272 273 274 275 276 277 278 279 280 281 282 283 284 285 0
286 287 288 289 290 291 292 293 294 295 296 297 298 299 300 301 302 303 304 0
305 306 307 308 309 310 311 312 313 314 315 316 317 318 319 320 321 322 323 0
324 325 326 327 328 329 330 331 332 333 334 335 336 337 338 339 340 341 342 0
343 344 345 346 347 348 349 350 351 352 353 354 355 356 357 358 359 360 361 0
362 363 364 365 366 367 368 369 370 371 372 373 374 375 376 377 378 379 380 0
381 382 383 384 385 386 387 388 389 390 391 392 393 394 395 396 397 398 399 0
400 401 402 403 404 405 406 407 408 409 410 411 412 413 414 415 416 417 418 0
419 420 421 422 423 424 425 426 427 428 429 430 431 432 433 434 435 436 437 0
438 439 440 441 442 443 444 445 446 447 448 449 450 451 452 453 454 455 456 0
457 458 459 460 461 462 463 464 465 466 467 468 469 470 471 472 473 474 475 0
476 477 478 479 480 481 482 483 484 485 486 487 488 489 490 491 492 493 494 0
495 496 497 498 499 500 501 502 503 504 505 506 507 508 509 510 511 512 513 0
514 515 516 517 518 519 520 521 522 523 524 525 526 527 528 529 530 531 532 0
533 534 535 536 537 538 539 540 541 542 543 544 545 546 547 548 549 550 551 0
552 553 554 555 556 557 558 559 560 561 562 563 564 565 566 567 568 569 570 0
-1 -286 0
-2 -287 0
-3 -288 0
-4 -289 0
-5 -290 0
-6 -291 0
-7 -292 0
-8 -293 0
-9 -294 0
-10 -295 0
-11 -296 0
-12 -297 0
-13 -298 0
-14 -299 0
-15 -300 0
-16 -301 0
-17 -302 0
-18 -303 0
-19 -304 0
-20 -305 0
-21 -306 0
-22 -307 0
-23 -308 0
-24 -309 0
-25 -310 0
-26 -311 0
-27 -312 0
-28 -313 0
-29 -314 0
-30 -315 0
-31 -316 0
-32 -317 0
-33 -318 0
-34 -319 0
-35 -320 0
-36 -321 0
-37 -322 0
-38 -323 0
-39 -324 0
-40 -325 0
-41 -326 0
-42 -327 0
-43 -328 0
-44 -329 0
-45 -330 0
-46 -331 0
-47 -332 0
-48 -333 0
-49 -334 0
-50 -335 0
-51 -336 0
-52 -337 0
-53 -338 0
-54 -339 0
-55 -340 0
-56 -341 0
-57 -342 0
-58 -343 0
-59 -344 0
-60 -345 0
-61 -346 0
-62 -347 0
-63 -348 0
-64 -349 0
-65 -350 0
-66 -351 0
-67 -352 0
-68 -353 0
-69 -354 0
-70 -355 0
-71 -356 0
-72 -357 0
-73 -358 0
-74 -359 0
-75 -360 0
-76 -361 0
-77 -362 0
-78 -363 0
-79 -364 0
-80 -365 0
-81 -366 0
-82 -367 0
-83 -368 0
-84 -369 0
-85 -370 0
-86 -371 0
-87 -372 0
-88 -373 0
-89 -374 0
-90 -375 0
-91 -376 0
-92 -377 0
-93 -378 0
-94 -379 0
-95 -380 0
-96 -381 0
-97 -382 0
-98 -383 0
-99 -384 0
-100 -385 0
-101 -386 0
-102 -387 0
-103 -388 0
-104 -389 0
-105 -390 0
-106 -391 0
-107 -392 0
-108 -393 0
-109 -394 0
-110 -395 0
-111 -396 0
-112 -397 0
-113 -398 0
-114 -399 0
-115 -400 0
-116 -401 0
-117 -402 0
-118 -403 0
-119 -404 0
-120 -405 0
-121 -406 0
-122 -407 0
-123 -408 0
-124 -409 0
-125 -410 0
-126 -411 0
-127 -412 0
-128 -413 0
-129 -414 0
-130 -415 0
-131 -416 0
-132 -417 0
-133 -418 0
-134 -419 0
-135 -420 0
-136 -421 0
-137 -422 0
-138 -423 0
-139 -424 0
-140 -425 0
-141 -426 0
-142 -427 0
-143 -428 0
-144 -429 0
-145 -430 0
-146 -431 0
-147 -432 0
-148 -433 0
-149 -434 0
-150 -435 0
-151 -436 0
-152 -437 0
-153 -438 0
-154 -439 0
-155 -440 0
-156 -441 0
-157 -442 0
-158 -443 0
-159 -444 0
-160 -445 0
-161 -446 0
-162 -447 0
-163 -448 0
-164 -449 0
-165 -450 0
-166 -451 0
-167 -452 0
-168 -453 0
-169 -454 0
-170 -455 0
-171 -456 0
-172 -457 0
-173 -458 0
-174 -459 0
-175 -460 0
-176 -461 0
-177 -462 0
-178 -463 0
-179 -464 0
-180 -465 0
-181 -466 0
-182 -467 0
-183 -468 0
-184 -469 0
-185 -470 0
-186 -471 0
-187 -472 0
-188 -473 0
-189 -474 0
-190 -475 0
-191 -476 0
-192 -477 0
-193 -478 0
-194 -479 0
-195 -480 0
-196 -481 0
-197 -482 0
-198 -483 0
-199 -484 0
-200 -485 0
-201 -486 0
-202 -487 0
-203 -488 0
-204 -489 0
-205 -490 0
-206 -491 0
-207 -492 0
-208 -493 0
-209 -494 0
-210 -495 0
-211 -496 0
-212 -497 0
-213 -498 0
-214 -499 0
-215 -500 0
-216 -501 0
-217 -502 0
-218 -503 0
-219 -504 0
-220 -505 0
-221 -506 0
-222 -507 0
-223 -508 0
-224 -509 0
-225 -510 0
-226 -511 0
-227 -512 0
-228 -513 0
-229 -514 0
-230 -515 0
-231 -516 0
-232 -517 0
-233 -518 0
-234 -519 0
-235 -520 0
-236 -521 0
-237 -522 0
-238 -523 0
-239 -524 0
-240 -525 0
-241 -526 0
-242 -527 0
-243 -528 0
-244 -529 0
-245 -530 0
-246 -531 0
-247 -532 0
-248 -533 0
-249 -534 0
-250 -535 0
-251 -536 0
-252 -537 0
-253 -538 0
-254 -539 0
-255 -540 0
-256 -541 0
-257 -542 0
-258 -543 0
-259 -544 0
-260 -545 0
-261 -546 0
-262 -547 0
-263 -548 0
-264 -549 0
-265 -550 0
-266 -551 0
-267 -552 0
-268 -553 0
-269 -554 0
-270 -555 0
-271 -556 0
-272 -557 0
-273 -558 0
-274 -559 0
-275 -560 0
-276 -561 0
-277 -562 0
-278 -563 0
-279 -564 0
-280 -565 0
-281 -566 0
-282 -567 0
-283 -568 0
-284 -569 0
-285 -570 0
-1 20 25 21 0
-2 21 22 20 0
-3 22 26 23 21 0
-4 23 27 24 22 0
-5 24 23 0
-6 25 28 20 0
-7 26 29 22 27 0
-8 27 30 23 26 0
-9 28 31 25 0
-10 29 26 30 0
-11 30 33 27 29 0
-12 31 28 32 0
-13 32 35 31 0
-14 33 37 30 34 0
-15 34 38 33 0
-16 35 32 36 0
-17 36 37 35 0
-18 37 33 38 36 0
-19 38 34 37 0
-20 39 44 40 0
-21 40 41 39 0
-22 41 45 42 40 0
-23 42 46 43 41 0
-24 43 42 0
-25 44 47 39 0
-26 45 48 41 46 0
-27 46 49 42 45 0
-28 47 50 44 0
-29 48 45 49 0
-30 49 52 46 48 0
-31 50 47 51 0
-32 51 54 50 0
-33 52 56 49 53 0
-34 53 57 52 0
-35 54 51 55 0
-36 55 56 54 0
-37 56 52 57 55 0
-38 57 53 56 0
-39 58 63 59 0
-40 59 60 58 0
-41 60 64 61 59 0
-42 61 65 62 60 0
-43 62 61 0
-44 63 66 58 0
-45 64 67 60 65 0
-46 65 68 61 64 0
-47 66 69 63 0
-48 67 64 68 0
-49 68 71 65 67 0
-50 69 66 70 0
-51 70 73 69 0
-52 71 75 68 72 0
-53 72 76 71 0
-54 73 70 74 0
-55 74 75 73 0
-56 75 71 76 74 0
-57 76 72 75 0
-58 77 82 78 0
-59 78 79 77 0
-60 79 83 80 78 0
-61 80 84 81 79 0
-62 81 80 0
-63 82 85 77 0
-64 83 86 79 84 0
-65 84 87 80 83 0
-66 85 88 82 0
-67 86 83 87 0
-68 87 90 84 86 0
-69 88 85 89 0
-70 89 92 88 0
-71 90 94 87 91 0
-72 91 95 90 0
-73 92 89 93 0
-74 93 94 92 0
-75 94 90 95 93 0
-76 95 91 94 0
-77 96 101 97 0
-78 97 98 96 0
-79 98 102 99 97 0
-80 99 103 100 98 0
-81 100 99 0
-82 101 104 96 0
-83 102 105 98 103 0
-84 103 106 99 102 0
-85 104 107 101 0
-86 105 102 106 0
-87 106 109 103 105 0
-88 107 104 108 0
-89 108 111 107 0
-90 109 113 106 110 0
-91 110 114 109 0
-92 111 108 112 0
-93 112 113 111 0
-94 113 109 114 112 0
-95 114 110 113 0
-96 115 120 116 0
-97 116 117 115 0
-98 117 121 118 116 0
-99 118 122 119 117 0
-100 119 118 0
-101 120 123 115 0
-102 121 124 117 122 0
-103 122 125 118 121 0
-104 123 126 120 0
-105 124 121 125 0
-106 125 128 122 124 0
-107 126 123 127 0
-108 127 130 126 0
-109 128 132 125 129 0
-110 129 133 128 0
-111 130 127 131 0
-112 131 132 130 0
-113 132 128 133 131 0
-114 133 129 132 0
-115 134 139 135 0
-116 135 136 134 0
-117 136 140 137 135 0
-118 137 141 138 136 0
-119 138 137 0
-120 139 142 134 0
-121 140 143 136 141 0
-122 141 144 137 140 0
-123 142 145 139 0
-124 143 140 144 0
-125 144 147 141 143 0
-126 145 142 146 0
-127 146 149 145 0
-128 147 151 144 148 0
-129 148 152 147 0
-130 149 146 150 0
-131 150 151 149 0
-132 151 147 152 150 0
-133 152 148 151 0
-134 153 158 154 0
-135 154 155 153 0
-136 155 159 156 154 0
-137 156 160 157 155 0
-138 157 156 0
-139 158 161 153 0
-140 159 162 155 160 0
-141 160 163 156 159 0
-142 161 164 158 0
-143 162 159 163 0
-144 163 166 160 162 0
-145 164 161 165 0
-146 165 168 164 0
-147 166 170 163 167 0
-148 167 171 166 0
-149 168 165 169 0
-150 169 170 168 0
-151 170 166 171 169 0
-152 171 167 170 0
-153 172 177 173 0
-154 173 174 172 0
-155 174 178 175 173 0
-156 175 179 176 174 0
-157 176 175 0
-158 177 180 172 0
-159 178 181 174 179 0
-160 179 182 175 178 0
-161 180 183 177 0
-162 181 178 182 0
-163 182 185 179 181 0
-164 183 180 184 0
-165 184 187 183 0
-166 185 189 182 186 0
-167 186 190 185 0
-168 187 184 188 0
-169 188 189 187 0
-170 189 185 190 188 0
-171 190 186 189 0
-172 191 196 192 0
-173 192 193 191 0
-174 193 197 194 192 0
-175 194 198 195 193 0
-176 195 194 0
-177 196 199 191 0
-178 197 200 193 198 0
-179 198 201 194 197 0
-180 199 202 196 0
-181 200 197 201 0
-182 201 204 198 200 0
-183 202 199 203 0
-184 203 206 202 0
-185 204 208 201 205 0
-186 205 209 204 0
-187 206 203 207 0
-188 207 208 206 0
-189 208 204 209 207 0
-190 209 205 208 0
-191 210 215 211 0
-192 211 212 210 0
-193 212 216 213 211 0
-194 213 217 214 212 0
-195 214 213 0
-196 215 218 210 0
-197 216 219 212 217 0
-198 217 220 213 216 0
-199 218 221 215 0
-200 219 216 220 0
-201 220 223 217 219 0
-202 221 218 222 0
-203 222 225 221 0
-204 223 227 220 224 0
-205 224 228 223 0
-206 225 222 226 0
-207 226 227 225 0
-208 227 223 228 226 0
-209 228 224 227 0
-210 229 234 230 0
-211 230 231 229 0
-212 231 235 232 230 0
-213 232 236 233 231 0
-214 233 232 0
-215 234 237 229 0
-216 235 238 231 236 0
-217 236 239 232 235 0
-218 237 240 234 0
-219 238 235 239 0
-220 239 242 236 238 0
-221 240 237 241 0
-222 241 244 240 0
-223 242 246 239 243 0
-224 243 247 242 0
-225 244 241 245 0
-226 245 246 244 0
-227 246 242 247 245 0
-228 247 243 246 0
-229 248 253 249 0
-230 249 250 248 0
-231 250 254 251 249 0
-232 251 255 252 250 0
-233 252 251 0
-234 253 256 248 0
-235 254 257 250 255 0
-236 255 258 251 254 0
-237 256 259 253 0
-238 257 254 258 0
-239 258 261 255 257 0
-240 259 256 260 0
-241 260 263 259 0
-242 261 265 258 262 0
-243 262 266 261 0
-244 263 260 264 0
-245 264 265 263 0
-246 265 261 266 264 0
-247 266 262 265 0
-248 267 272 268 0
-249 268 269 267 0
-250 269 273 270 268 0
-251 270 274 271 269 0
-252 271 270 0
-253 272 275 267 0
-254 273 276 269 274 0
-255 274 277 270 273 0
-256 275 278 272 0
-257 276 273 277 0
-258 277 280 274 276 0
-259 278 275 279 0
-260 279 282 278 0
-261 280 284 277 281 0
-262 281 285 280 0
-263 282 279 283 0
-264 283 284 282 0
-265 284 280 285 283 0
-266 285 281 284 0
-286 305 310 306 0
-287 306 307 305 0
-288 307 311 308 306 0
-289 308 312 309 307 0
-290 309 308 0
-291 310 313 305 0
-292 311 314 307 312 0
-293 312 315 308 311 0
-294 313 316 310 0
-295 314 311 315 0
-296 315 318 312 314 0
-297 316 313 317 0
-298 317 320 316 0
-299 318 322 315 319 0
-300 319 323 318 0
-301 320 317 321 0
-302 321 322 320 0
-303 322 318 323 321 0
-304 323 319 322 0
-305 324 329 325 0
-306 325 326 324 0
-307 326 330 327 325 0
-308 327 331 328 326 0
-309 328 327 0
-310 329 332 324 0
-311 330 333 326 331 0
-312 331 334 327 330 0
-313 332 335 329 0
-314 333 330 334 0
-315 334 337 331 333 0
-316 335 332 336 0
-317 336 339 335 0
-318 337 341 334 338 0
-319 338 342 337 0
-320 339 336 340 0
-321 340 341 339 0
-322 341 337 342 340 0
-323 342 338 341 0
-324 343 348 344 0
-325 344 345 343 0
-326 345 349 346 344 0
-327 346 350 347 345 0
-328 347 346 0
-329 348 351 343 0
-330 349 352 345 350 0
-331 350 353 346 349 0
-332 351 354 348 0
-333 352 349 353 0
-334 353 356 350 352 0
-335 354 351 355 0
-336 355 358 354 0
-337 356 360 353 357 0
-338 357 361 356 0
-339 358 355 359 0
-340 359 360 358 0
-341 360 356 361 359 0
-342 361 357 360 0
-343 362 367 363 0
-344 363 364 362 0
-345 364 368 365 363 0
-346 365 369 366 364 0
-347 366 365 0
-348 367 370 362 0
-349 368 371 364 369 0
-350 369 372 365 368 0
-351 370 373 367 0
-352 371 368 372 0
-353 372 375 369 371 0
-354 373 370 374 0
-355 374 377 373 0
-356 375 379 372 376 0
-357 376 380 375 0
-358 377 374 378 0
-359 378 379 377 0
-360 379 375 380 378 0
-361 380 376 379 0
-362 381 386 382 0
-363 382 383 381 0
-364 383 387 384 382 0
-365 384 388 385 383 0
-366 385 384 0
-367 386 389 381 0
-368 387 390 383 388 0
-369 388 391 384 387 0
-370 389 392 386 0
-371 390 387 391 0
-372 391 394 388 390 0
-373 392 389 393 0
-374 393 396 392 0
-375 394 398 391 395 0
-376 395 399 394 0
-377 396 393 397 0
-378 397 398 396 0
-379 398 394 399 397 0
-380 399 395 398 0
-381 400 405 401 0
-382 401 402 400 0
-383 402 406 403 401 0
-384 403 407 404 402 0
-385 404 403 0
-386 405 408 400 0
-387 406 409 402 407 0
-388 407 410 403 406 0
-389 408 411 405 0
-390 409 406 410 0
-391 410 413 407 409 0
-392 411 408 412 0
-393 412 415 411 0
-394 413 417 410 414 0
-395 414 418 413 0
-396 415 412 416 0
-397 416 417 415 0
-398 417 413 418 416 0
-399 418 414 417 0
-400 419 424 420 0
-401 420 421 419 0
-402 421 425 422 420 0
-403 422 426 423 421 0
-404 423 422 0
-405 424 427 419 0
-406 425 428 421 426 0
-407 426 429 422 425 0
-408 427 430 424 0
-409 428 425 429 0
-410 429 432 426 428 0
-411 430 427 431 0
-412 431 434 430 0
-413 432 436 429 433 0
-414 433 437 432 0
-415 434 431 435 0
-416 435 436 434 0
-417 436 432 437 435 0
-418 437 433 436 0
-419 438 443 439 0
-420 439 440 438 0
-421 440 444 441 439 0
-422 441 445 442 440 0
-423 442 441 0
-424 443 446 438 0
-425 444 447 440 445 0
-426 445 448 441 444 0
-427 446 449 443 0
-428 447 444 448 0
-429 448 451 445 447 0
-430 449 446 450 0
-431 450 453 449 0
-432 451 455 448 452 0
-433 452 456 451 0
-434 453 450 454 0
-435 454 455 453 0
-436 455 451 456 454 0
-437 456 452 455 0
-438 457 462 458 0
-439 458 459 457 0
-440 459 463 460 458 0
-441 460 464 461 459 0
-442 461 460 0
-443 462 465 457 0
-444 463 466 459 464 0
-445 464 467 460 463 0
-446 465 468 462 0
-447 466 463 467 0
-448 467 470 464 466 0
-449 468 465 469 0
-450 469 472 468 0
-451 470 474 467 471 0
-452 471 475 470 0
-453 472 469 473 0
-454 473 474 472 0
-455 474 470 475 473 0
-456 475 471 474 0
-457 476 481 477 0
-458 477 478 476 0
-459 478 482 479 477 0
-460 479 483 480 478 0
-461 480 479 0
-462 481 484 476 0
-463 482 485 478 483 0
-464 483 486 479 482 0
-465 484 487 481 0
-466 485 482 486 0
-467 486 489 483 485 0
-468 487 484 488 0
-469 488 491 487 0
-470 489 493 486 490 0
-471 490 494 489 0
-472 491 488 492 0
-473 492 493 491 0
-474 493 489 494 492 0
-475 494 490 493 0
-476 495 500 496 0
-477 496 497 495 0
-478 497 501 498 496 0
-479 498 502 499 497 0
-480 499 498 0
-481 500 503 495 0
-482 501 504 497 502 0
-483 502 505 498 501 0
-484 503 506 500 0
-485 504 501 505 0
-486 505 508 502 504 0
-487 506 503 507 0
-488 507 510 506 0
-489 508 512 505 509 0
-490 509 513 508 0
-491 510 507 511 0
-492 511 512 510 0
-493 512 508 513 511 0
-494 513 509 512 0
-495 514 519 515 0
-496 515 516 514 0
-497 516 520 517 515 0
-498 517 521 518 516 0
-499 518 517 0
-500 519 522 514 0
-501 520 523 516 521 0
-502 521 524 517 520 0
-503 522 525 519 0
-504 523 520 524 0
-505 524 527 521 523 0
-506 525 522 526 0
-507 526 529 525 0
-508 527 531 524 528 0
-509 528 532 527 0
-510 529 526 530 0
-511 530 531 529 0
-512 531 527 532 530 0
-513 532 528 531 0
-514 533 538 534 0
-515 534 535 533 0
-516 535 539 536 534 0
-517 536 540 537 535 0
-518 537 536 0
-519 538 541 533 0
-520 539 542 535 540 0
-521 540 543 536 539 0
-522 541 544 538 0
-523 542 539 543 0
-524 543 546 540 542 0
-525 544 541 545 0
-526 545 548 544 0
-527 546 550 543 547 0
-528 547 551 546 0
-529 548 545 549 0
-530 549 550 548 0
-531 550 546 551 549 0
-532 551 547 550 0
-533 552 557 553 0
-534 553 554 552 0
-535 554 558 555 553 0
-536 555 559 556 554 0
-537 556 555 0
-538 557 560 552 0
-539 558 561 554 559 0
-540 559 562 555 558 0
-541 560 563 557 0
-542 561 558 562 0
-543 562 565 559 561 0
-544 563 560 564 0
-545 564 567 563 0
-546 565 569 562 566 0
-547 566 570 565 0
-548 567 564 568 0
-549 568 569 567 0
-550 569 565 570 568 0
-551 570 566 569 0
1 0
-2 0
-571 0
-572 0
-13 0
-16 0
-3 0
-7 0
-10 0
-573 0
-17 0
-4 0
-8 0
-11 0
-14 0
-18 0
-5 0
-574 0
-575 0
-15 0
-19 0
294 0
-1 0
-6 0
-9 0
-12 0
-576 0
-2 0
-571 0
-572 0
-13 0
-16 0
-3 0
-7 0
-10 0
-573 0
-17 0
-4 0
-8 0
-11 0
-14 0
-18 0
-5 0
-574 0
-575 0
-15 0
-19 0
285 0
-267 0
-272 0
-275 0
-278 0
-577 0
-268 0
-578 0
-579 0
-279 0
-282 0
-269 0
-273 0
-276 0
-580 0
-283 0
-270 0
-274 0
-277 0
-280 0
-284 0
-271 0
-581 0
-582 0
-281 0
556 0
-577 0
-268 0
-578 0
-579 0
-279 0
-282 0
-269 0
-273 0
-276 0
-580 0
-283 0
-270 0
-274 0
-277 0
-280 0
-284 0
-271 0
-581 0
-582 0
-281 0
-285 0
163 0
-583 0
-154 0
-584 0
-585 0
-165 0
-168 0
-155 0
-159 0
-162 0
-586 0
-169 0
-156 0
-160 0
-163 0
-166 0
-170 0
-157 0
-587 0
-588 0
-167 0
-171 0
447 0
-583 0
-154 0
-584 0
-585 0
-165 0
-168 0
-155 0
-159 0
-162 0
-586 0
-169 0
-156 0
-160 0
-163 0
-166 0
-170 0
-157 0
-587 0
-588 0
-167 0
-171 0
